NAME : random_17
COMMENT : 30 random nodes
TYPE : TSP
DIMENSION : 30
EDGE_WEIGHT_TYPE : EUC_2D
NODE_COORD_SECTION
1 966 809
2 435 940
3 299 209
4 495 343
5 373 324
6 580 996
7 672 147
8 708 852
9 865 37
10 253 638
11 749 328
12 959 100
13 792 494
14 27 275
15 854 409
16 621 231
17 687 779
18 51 338
19 676 634
20 489 778
21 44 241
22 98 330
23 324 254
24 239 707
25 669 608
26 57 607
27 836 163
28 938 392
29 588 305
30 478 444
EOF